Geographic Exponential Decay
20 270 187 88 288 12 31 283 6 117 69 93 134 218 44 17 208 86 280 42 178
p edge 320 1286
e 0 210 1.0
e 0 181 3.0
e 1 43 2.0
e 1 275 3.0
e 1 30 1.0
e 2 196 3.0
e 2 129 1.0
e 3 18 6.0
e 3 251 7.0
e 4 143 2.0
e 4 161 2.0
e 5 105 3.0
e 5 46 5.0
e 5 286 8.0
e 6 266 93.0
e 6 129 91.0
e 6 274 69.0
e 6 251 36.0
e 6 290 21.0
e 6 210 8.0
e 6 179 27.0
e 6 158 41.0
e 6 289 14.0
e 6 40 41.0
e 6 233 64.0
e 6 8 92.0
e 6 317 98.0
e 6 211 7.0
e 6 177 24.0
e 6 157 25.0
e 6 194 46.0
e 6 310 20.0
e 6 165 50.0
e 6 27 51.0
e 6 94 97.0
e 6 41 6.0
e 6 227 47.0
e 6 97 52.0
e 6 104 1.0
e 6 318 71.0
e 6 187 40.0
e 6 141 85.0
e 6 9 21.0
e 6 22 84.0
e 6 298 41.0
e 6 52 23.0
e 6 42 19.0
e 6 36 76.0
e 6 246 54.0
e 6 98 86.0
e 6 135 27.0
e 7 31 87.0
e 7 82 2.0
e 8 75 4.0
e 8 102 1.0
e 9 249 1.0
e 10 76 1.0
e 10 108 1.0
e 10 39 1.0
e 11 215 1.0
e 11 129 1.0
e 12 304 1.0
e 12 141 82.0
e 12 218 80.0
e 12 270 90.0
e 12 271 26.0
e 12 112 49.0
e 12 116 45.0
e 12 178 53.0
e 12 136 78.0
e 12 3 29.0
e 12 308 67.0
e 12 25 41.0
e 12 119 14.0
e 12 85 55.0
e 12 220 26.0
e 12 299 36.0
e 12 10 71.0
e 12 60 71.0
e 12 280 52.0
e 12 197 71.0
e 12 200 6.0
e 12 254 15.0
e 12 206 56.0
e 12 34 58.0
e 12 229 52.0
e 12 317 67.0
e 12 108 23.0
e 12 41 38.0
e 12 4 99.0
e 12 172 86.0
e 12 237 6.0
e 12 64 99.0
e 12 214 94.0
e 12 201 95.0
e 12 35 68.0
e 12 231 38.0
e 12 135 73.0
e 13 34 7.0
e 13 111 2.0
e 13 313 11.0
e 13 218 68.0
e 13 33 1.0
e 14 60 3.0
e 14 143 5.0
e 14 36 1.0
e 15 24 2.0
e 15 4 2.0
e 16 309 3.0
e 16 107 2.0
e 16 306 5.0
e 17 108 87.0
e 17 16 27.0
e 17 153 41.0
e 17 96 13.0
e 17 105 91.0
e 17 132 2.0
e 17 255 40.0
e 17 181 5.0
e 17 115 77.0
e 17 94 4.0
e 17 133 69.0
e 17 55 21.0
e 17 78 68.0
e 17 304 49.0
e 17 317 2.0
e 17 224 97.0
e 17 195 3.0
e 17 308 58.0
e 17 313 10.0
e 17 18 2.0
e 17 106 58.0
e 17 42 83.0
e 17 81 39.0
e 17 222 40.0
e 17 54 50.0
e 17 206 31.0
e 17 262 98.0
e 17 44 60.0
e 17 205 33.0
e 17 291 7.0
e 17 135 31.0
e 17 234 1.0
e 17 299 48.0
e 17 73 90.0
e 17 140 50.0
e 17 314 39.0
e 17 11 39.0
e 18 20 6.0
e 18 92 5.0
e 18 31 40.0
e 19 193 1.0
e 19 240 4.0
e 19 48 24.0
e 20 221 3.0
e 21 39 7.0
e 21 32 1.0
e 22 159 4.0
e 22 136 5.0
e 23 119 2.0
e 23 69 62.0
e 23 242 6.0
e 24 3 2.0
e 25 170 5.0
e 25 10 1.0
e 26 149 2.0
e 26 269 3.0
e 26 309 4.0
e 26 272 4.0
e 26 48 8.0
e 27 143 8.0
e 27 81 3.0
e 27 227 10.0
e 27 77 3.0
e 28 257 1.0
e 28 300 2.0
e 29 256 5.0
e 29 278 1.0
e 30 171 26.0
e 30 259 3.0
e 31 134 33.0
e 31 304 84.0
e 31 113 73.0
e 31 287 39.0
e 31 42 6.0
e 31 276 87.0
e 31 52 62.0
e 31 226 34.0
e 31 176 88.0
e 31 92 60.0
e 31 285 37.0
e 31 141 71.0
e 31 241 38.0
e 31 63 28.0
e 31 162 43.0
e 31 222 37.0
e 31 205 29.0
e 31 186 55.0
e 31 90 70.0
e 31 138 19.0
e 31 317 49.0
e 31 86 68.0
e 31 122 15.0
e 31 144 28.0
e 31 135 76.0
e 31 201 9.0
e 31 217 35.0
e 31 298 88.0
e 31 56 44.0
e 31 14 30.0
e 31 268 56.0
e 31 267 67.0
e 31 73 42.0
e 31 53 18.0
e 31 95 24.0
e 32 276 4.0
e 33 46 1.0
e 34 176 19.0
e 34 96 4.0
e 34 114 9.0
e 34 209 13.0
e 34 36 2.0
e 34 246 10.0
e 34 142 24.0
e 34 174 9.0
e 35 287 7.0
e 35 250 1.0
e 37 293 2.0
e 37 270 84.0
e 38 138 7.0
e 38 83 1.0
e 39 184 5.0
e 39 138 3.0
e 39 35 9.0
e 40 240 2.0
e 41 84 3.0
e 42 124 77.0
e 42 230 14.0
e 42 193 37.0
e 42 174 30.0
e 42 192 97.0
e 42 231 53.0
e 42 209 97.0
e 42 276 6.0
e 42 300 76.0
e 42 221 75.0
e 42 274 4.0
e 42 24 92.0
e 42 254 22.0
e 42 315 89.0
e 42 175 74.0
e 42 215 96.0
e 42 182 83.0
e 42 18 75.0
e 42 257 7.0
e 42 44 52.0
e 42 97 32.0
e 42 86 100.0
e 42 267 1.0
e 42 162 25.0
e 42 242 43.0
e 42 150 76.0
e 42 87 4.0
e 42 88 87.0
e 42 218 95.0
e 42 271 6.0
e 42 179 33.0
e 42 82 29.0
e 42 247 46.0
e 42 130 26.0
e 43 114 1.0
e 44 95 30.0
e 44 293 88.0
e 44 107 27.0
e 44 126 74.0
e 44 9 40.0
e 44 101 34.0
e 44 160 62.0
e 44 286 79.0
e 44 233 59.0
e 44 72 93.0
e 44 294 51.0
e 44 242 3.0
e 44 177 60.0
e 44 186 45.0
e 44 6 100.0
e 44 245 32.0
e 44 104 4.0
e 44 268 27.0
e 44 313 23.0
e 44 246 60.0
e 44 50 71.0
e 44 84 24.0
e 44 247 62.0
e 44 257 50.0
e 44 19 62.0
e 44 97 16.0
e 44 187 85.0
e 44 78 6.0
e 44 81 80.0
e 44 295 65.0
e 44 180 35.0
e 44 208 62.0
e 44 10 51.0
e 44 29 76.0
e 44 66 27.0
e 45 310 7.0
e 45 24 2.0
e 45 283 22.0
e 45 97 10.0
e 45 36 4.0
e 47 20 6.0
e 47 198 23.0
e 47 255 14.0
e 47 124 10.0
e 47 48 13.0
e 47 41 3.0
e 47 146 23.0
e 47 123 19.0
e 47 85 6.0
e 47 252 13.0
e 48 49 10.0
e 48 178 28.0
e 48 148 18.0
e 48 302 4.0
e 48 317 9.0
e 48 30 22.0
e 48 88 48.0
e 49 256 3.0
e 50 176 4.0
e 51 14 4.0
e 51 12 26.0
e 51 119 3.0
e 53 59 9.0
e 53 267 2.0
e 53 144 8.0
e 53 117 57.0
e 54 126 2.0
e 55 25 4.0
e 55 0 1.0
e 56 83 1.0
e 57 273 1.0
e 57 153 1.0
e 58 106 6.0
e 58 237 8.0
e 58 56 3.0
e 58 90 24.0
e 58 198 1.0
e 59 239 6.0
e 61 88 85.0
e 61 312 11.0
e 62 145 16.0
e 62 276 4.0
e 62 193 14.0
e 62 15 5.0
e 62 226 21.0
e 62 172 22.0
e 62 223 9.0
e 62 52 24.0
e 62 1 10.0
e 62 242 5.0
e 63 293 1.0
e 64 286 10.0
e 64 94 6.0
e 64 123 8.0
e 64 135 4.0
e 65 57 40.0
e 65 185 11.0
e 65 107 21.0
e 65 88 99.0
e 65 83 18.0
e 65 41 4.0
e 65 216 26.0
e 65 103 19.0
e 65 310 21.0
e 65 264 42.0
e 65 294 49.0
e 65 231 28.0
e 65 301 7.0
e 65 171 43.0
e 65 154 5.0
e 65 84 36.0
e 65 149 21.0
e 65 186 28.0
e 65 176 19.0
e 66 292 2.0
e 67 25 8.0
e 67 236 11.0
e 67 130 1.0
e 67 100 5.0
e 67 282 6.0
e 68 204 30.0
e 68 301 36.0
e 68 13 26.0
e 68 221 26.0
e 68 66 44.0
e 68 249 1.0
e 68 74 1.0
e 68 41 11.0
e 68 211 29.0
e 68 160 23.0
e 68 235 47.0
e 68 317 40.0
e 68 175 32.0
e 68 237 6.0
e 68 206 15.0
e 68 157 23.0
e 68 43 29.0
e 68 291 40.0
e 68 83 21.0
e 69 142 21.0
e 69 9 41.0
e 69 259 38.0
e 69 114 45.0
e 69 132 96.0
e 69 151 22.0
e 69 213 15.0
e 69 65 2.0
e 69 274 7.0
e 69 19 8.0
e 69 78 93.0
e 69 4 38.0
e 69 110 76.0
e 69 190 33.0
e 69 194 53.0
e 69 22 69.0
e 69 35 18.0
e 69 108 59.0
e 69 100 73.0
e 69 122 18.0
e 69 268 9.0
e 69 99 57.0
e 69 43 34.0
e 69 138 36.0
e 69 103 73.0
e 69 5 52.0
e 69 14 15.0
e 69 251 89.0
e 69 226 3.0
e 69 133 71.0
e 69 92 67.0
e 69 90 45.0
e 69 44 25.0
e 69 289 53.0
e 69 222 37.0
e 69 156 62.0
e 70 235 10.0
e 70 297 6.0
e 71 1 1.0
e 71 91 2.0
e 72 23 23.0
e 72 109 15.0
e 72 56 22.0
e 72 113 12.0
e 72 277 20.0
e 72 212 17.0
e 72 55 7.0
e 72 93 26.0
e 72 52 5.0
e 74 27 2.0
e 75 111 4.0
e 75 295 10.0
e 76 99 6.0
e 77 144 3.0
e 77 316 2.0
e 77 303 1.0
e 77 140 2.0
e 78 58 5.0
e 78 104 3.0
e 79 270 11.0
e 79 147 2.0
e 80 197 4.0
e 80 106 6.0
e 80 198 10.0
e 80 91 9.0
e 80 180 1.0
e 82 174 6.0
e 82 173 1.0
e 82 156 2.0
e 86 173 3.0
e 86 160 81.0
e 86 221 98.0
e 86 306 24.0
e 86 175 42.0
e 86 110 97.0
e 86 257 38.0
e 86 120 3.0
e 86 165 77.0
e 86 228 48.0
e 86 150 45.0
e 86 196 38.0
e 86 162 71.0
e 86 217 16.0
e 86 34 5.0
e 86 50 5.0
e 86 264 17.0
e 86 78 82.0
e 86 246 68.0
e 86 159 98.0
e 86 13 53.0
e 86 262 29.0
e 86 30 11.0
e 86 149 19.0
e 86 22 63.0
e 86 145 83.0
e 86 189 97.0
e 86 194 1.0
e 86 266 91.0
e 86 177 41.0
e 86 81 2.0
e 86 203 73.0
e 86 215 77.0
e 86 269 12.0
e 86 105 13.0
e 87 249 2.0
e 87 233 11.0
e 87 77 2.0
e 87 317 5.0
e 88 5 40.0
e 88 258 17.0
e 88 166 83.0
e 88 194 81.0
e 88 40 32.0
e 88 100 80.0
e 88 243 49.0
e 88 228 33.0
e 88 295 61.0
e 88 92 19.0
e 88 221 53.0
e 88 249 35.0
e 88 231 96.0
e 88 197 19.0
e 88 167 49.0
e 88 301 16.0
e 88 251 59.0
e 88 186 53.0
e 88 51 53.0
e 88 63 33.0
e 88 103 79.0
e 88 199 22.0
e 88 8 62.0
e 88 72 37.0
e 88 177 9.0
e 88 279 92.0
e 88 196 61.0
e 88 208 77.0
e 88 284 78.0
e 88 45 86.0
e 88 76 71.0
e 88 59 98.0
e 88 278 19.0
e 89 155 1.0
e 89 44 70.0
e 89 26 7.0
e 90 306 23.0
e 90 305 8.0
e 90 219 9.0
e 90 279 11.0
e 90 50 14.0
e 90 3 16.0
e 90 259 4.0
e 92 285 13.0
e 92 231 4.0
e 92 171 15.0
e 92 292 8.0
e 92 127 20.0
e 92 13 4.0
e 93 4 91.0
e 93 246 86.0
e 93 174 59.0
e 93 131 15.0
e 93 267 70.0
e 93 225 16.0
e 93 281 33.0
e 93 272 50.0
e 93 10 71.0
e 93 51 82.0
e 93 56 74.0
e 93 292 20.0
e 93 223 7.0
e 93 48 42.0
e 93 279 87.0
e 93 73 52.0
e 93 314 99.0
e 93 138 22.0
e 93 252 58.0
e 93 122 35.0
e 93 57 100.0
e 93 277 70.0
e 93 200 74.0
e 93 76 23.0
e 93 260 1.0
e 93 240 10.0
e 93 185 46.0
e 93 159 45.0
e 93 74 46.0
e 93 117 25.0
e 93 160 14.0
e 93 231 42.0
e 93 107 51.0
e 93 161 19.0
e 93 1 67.0
e 93 268 77.0
e 96 243 18.0
e 96 25 10.0
e 96 56 17.0
e 96 203 2.0
e 96 194 14.0
e 96 115 1.0
e 96 48 9.0
e 96 52 11.0
e 98 132 3.0
e 99 111 4.0
e 99 276 11.0
e 99 290 3.0
e 101 106 3.0
e 101 67 7.0
e 102 232 1.0
e 103 309 1.0
e 103 1 3.0
e 107 287 22.0
e 107 180 12.0
e 107 209 16.0
e 107 129 6.0
e 107 153 1.0
e 107 257 14.0
e 109 281 3.0
e 109 112 15.0
e 110 79 5.0
e 112 87 24.0
e 112 163 6.0
e 112 33 23.0
e 112 277 1.0
e 112 59 6.0
e 112 278 4.0
e 112 14 13.0
e 112 237 29.0
e 115 301 19.0
e 115 8 16.0
e 115 228 17.0
e 115 254 8.0
e 115 80 4.0
e 115 151 16.0
e 115 162 15.0
e 115 291 21.0
e 116 52 2.0
e 117 271 83.0
e 117 148 65.0
e 117 252 43.0
e 117 79 48.0
e 117 85 31.0
e 117 167 17.0
e 117 120 18.0
e 117 217 61.0
e 117 38 9.0
e 117 15 43.0
e 117 192 54.0
e 117 86 36.0
e 117 25 76.0
e 117 239 73.0
e 117 11 59.0
e 117 84 99.0
e 117 233 2.0
e 117 159 57.0
e 117 248 58.0
e 117 216 99.0
e 117 131 48.0
e 117 52 68.0
e 117 211 55.0
e 117 107 12.0
e 117 261 32.0
e 117 160 61.0
e 117 46 28.0
e 117 33 48.0
e 117 214 78.0
e 117 156 85.0
e 117 101 77.0
e 117 116 89.0
e 117 240 90.0
e 117 230 80.0
e 117 54 21.0
e 118 5 1.0
e 118 15 5.0
e 118 255 5.0
e 120 82 2.0
e 120 270 92.0
e 120 121 12.0
e 121 165 9.0
e 122 200 8.0
e 122 100 10.0
e 125 4 2.0
e 125 15 1.0
e 125 287 6.0
e 127 202 1.0
e 128 260 1.0
e 128 126 1.0
e 131 318 1.0
e 133 105 1.0
e 134 238 87.0
e 134 254 9.0
e 134 280 85.0
e 134 171 51.0
e 134 239 48.0
e 134 36 64.0
e 134 200 21.0
e 134 146 68.0
e 134 245 80.0
e 134 83 53.0
e 134 162 11.0
e 134 52 16.0
e 134 106 45.0
e 134 215 63.0
e 134 155 22.0
e 134 125 61.0
e 134 292 5.0
e 134 284 66.0
e 134 56 64.0
e 134 287 12.0
e 134 62 65.0
e 134 147 61.0
e 134 176 10.0
e 134 174 5.0
e 134 204 88.0
e 134 265 30.0
e 134 178 37.0
e 134 58 18.0
e 134 192 25.0
e 134 112 84.0
e 134 194 61.0
e 134 281 46.0
e 134 108 75.0
e 134 9 42.0
e 134 37 48.0
e 134 293 81.0
e 137 162 11.0
e 137 297 9.0
e 137 113 1.0
e 137 77 2.0
e 137 127 12.0
e 139 164 1.0
e 139 45 7.0
e 139 26 10.0
e 139 286 12.0
e 139 118 7.0
e 146 120 9.0
e 146 257 10.0
e 146 253 6.0
e 152 310 1.0
e 152 101 4.0
e 154 211 9.0
e 154 26 5.0
e 154 9 5.0
e 154 196 4.0
e 157 24 12.0
e 157 269 24.0
e 157 94 15.0
e 157 73 3.0
e 157 70 3.0
e 157 184 1.0
e 157 311 33.0
e 157 275 5.0
e 158 266 4.0
e 158 101 2.0
e 163 152 6.0
e 163 259 7.0
e 163 45 8.0
e 163 33 4.0
e 164 234 4.0
e 165 26 27.0
e 165 184 5.0
e 165 25 26.0
e 165 161 41.0
e 165 295 3.0
e 165 178 35.0
e 165 294 43.0
e 165 298 49.0
e 165 100 32.0
e 165 181 3.0
e 165 53 5.0
e 165 91 27.0
e 165 68 46.0
e 165 78 23.0
e 165 164 5.0
e 165 97 13.0
e 166 205 7.0
e 166 137 7.0
e 166 97 11.0
e 166 92 8.0
e 168 189 3.0
e 168 236 5.0
e 169 201 14.0
e 169 50 14.0
e 169 102 31.0
e 169 215 34.0
e 169 7 36.0
e 169 69 66.0
e 169 126 23.0
e 169 10 36.0
e 169 190 12.0
e 169 148 37.0
e 169 55 7.0
e 169 106 9.0
e 169 316 24.0
e 169 137 25.0
e 169 44 8.0
e 169 216 15.0
e 169 96 27.0
e 169 300 29.0
e 169 262 39.0
e 170 101 1.0
e 171 49 41.0
e 171 152 20.0
e 171 143 44.0
e 171 304 44.0
e 171 66 29.0
e 171 189 10.0
e 171 83 45.0
e 171 67 9.0
e 171 271 26.0
e 171 155 1.0
e 171 162 26.0
e 171 122 49.0
e 171 265 17.0
e 171 20 5.0
e 171 137 21.0
e 172 5 4.0
e 176 104 14.0
e 176 95 20.0
e 176 198 13.0
e 176 127 21.0
e 176 52 14.0
e 178 184 46.0
e 178 303 54.0
e 178 202 100.0
e 178 179 95.0
e 178 49 22.0
e 178 52 99.0
e 178 68 12.0
e 178 61 77.0
e 178 32 96.0
e 178 13 68.0
e 178 83 92.0
e 178 6 92.0
e 178 152 99.0
e 178 201 21.0
e 178 146 5.0
e 178 282 27.0
e 178 70 7.0
e 178 121 81.0
e 178 298 72.0
e 178 176 26.0
e 178 271 36.0
e 178 221 79.0
e 178 40 24.0
e 178 89 76.0
e 178 318 80.0
e 178 114 19.0
e 178 237 84.0
e 178 283 57.0
e 178 143 98.0
e 178 167 80.0
e 178 196 66.0
e 178 84 52.0
e 178 216 82.0
e 180 99 24.0
e 180 196 1.0
e 180 95 10.0
e 180 198 23.0
e 180 85 22.0
e 180 210 2.0
e 180 292 9.0
e 181 34 19.0
e 181 46 11.0
e 181 132 23.0
e 181 166 16.0
e 181 123 17.0
e 181 293 3.0
e 181 298 4.0
e 182 253 2.0
e 182 281 4.0
e 183 274 9.0
e 183 251 1.0
e 187 293 88.0
e 187 211 96.0
e 187 63 64.0
e 187 118 52.0
e 187 13 50.0
e 187 312 32.0
e 187 199 45.0
e 187 23 33.0
e 187 81 52.0
e 187 309 29.0
e 187 246 96.0
e 187 50 11.0
e 187 228 10.0
e 187 18 45.0
e 187 221 41.0
e 187 38 86.0
e 187 116 8.0
e 187 180 100.0
e 187 136 46.0
e 187 291 65.0
e 187 260 15.0
e 187 245 99.0
e 187 32 86.0
e 187 70 34.0
e 187 215 59.0
e 187 82 20.0
e 187 161 18.0
e 187 147 57.0
e 187 225 33.0
e 187 25 19.0
e 187 30 90.0
e 187 133 1.0
e 187 49 95.0
e 187 261 99.0
e 187 268 39.0
e 188 124 9.0
e 188 154 2.0
e 188 181 20.0
e 188 91 7.0
e 188 92 23.0
e 190 79 4.0
e 190 151 5.0
e 190 83 11.0
e 191 76 1.0
e 191 312 3.0
e 192 279 11.0
e 192 209 1.0
e 195 71 3.0
e 199 38 2.0
e 205 63 8.0
e 205 203 1.0
e 207 79 1.0
e 207 140 1.0
e 208 85 47.0
e 208 95 68.0
e 208 73 99.0
e 208 19 55.0
e 208 76 11.0
e 208 189 91.0
e 208 4 21.0
e 208 206 33.0
e 208 68 60.0
e 208 54 14.0
e 208 0 96.0
e 208 81 57.0
e 208 315 15.0
e 208 139 74.0
e 208 297 68.0
e 208 314 25.0
e 208 18 41.0
e 208 93 60.0
e 208 231 85.0
e 208 42 74.0
e 208 190 73.0
e 208 150 1.0
e 208 20 92.0
e 208 291 4.0
e 208 174 45.0
e 208 140 53.0
e 208 268 45.0
e 208 10 17.0
e 208 197 26.0
e 208 318 38.0
e 208 107 38.0
e 208 1 15.0
e 208 33 39.0
e 208 168 85.0
e 208 262 73.0
e 212 266 1.0
e 212 184 1.0
e 213 249 10.0
e 213 129 5.0
e 213 39 6.0
e 213 121 5.0
e 214 66 5.0
e 218 39 9.0
e 218 124 60.0
e 218 126 13.0
e 218 90 39.0
e 218 36 97.0
e 218 46 84.0
e 218 182 85.0
e 218 222 5.0
e 218 137 40.0
e 218 244 13.0
e 218 240 37.0
e 218 21 55.0
e 218 55 4.0
e 218 38 37.0
e 218 246 76.0
e 218 165 49.0
e 218 31 82.0
e 218 73 37.0
e 218 41 59.0
e 218 301 50.0
e 218 150 23.0
e 218 310 37.0
e 218 40 81.0
e 218 250 56.0
e 218 306 100.0
e 218 205 52.0
e 218 108 86.0
e 218 51 15.0
e 218 68 40.0
e 218 27 26.0
e 218 251 48.0
e 218 94 15.0
e 218 147 40.0
e 218 175 95.0
e 219 151 1.0
e 220 257 11.0
e 223 263 2.0
e 224 184 1.0
e 229 164 1.0
e 232 127 2.0
e 234 131 5.0
e 235 183 12.0
e 235 78 11.0
e 235 185 12.0
e 236 138 7.0
e 237 258 23.0
e 237 150 37.0
e 237 259 30.0
e 237 118 37.0
e 237 42 82.0
e 237 99 8.0
e 237 290 21.0
e 237 191 33.0
e 237 246 40.0
e 237 179 6.0
e 237 45 42.0
e 237 111 39.0
e 237 187 41.0
e 237 101 1.0
e 238 170 3.0
e 238 286 5.0
e 238 123 9.0
e 238 90 23.0
e 239 116 3.0
e 239 221 12.0
e 239 146 5.0
e 239 154 22.0
e 239 162 22.0
e 239 21 15.0
e 239 90 19.0
e 241 203 4.0
e 241 123 1.0
e 243 178 79.0
e 244 35 6.0
e 244 250 1.0
e 248 210 1.0
e 253 128 3.0
e 256 46 3.0
e 258 220 16.0
e 258 40 17.0
e 258 181 5.0
e 258 98 20.0
e 258 0 9.0
e 258 260 22.0
e 258 267 1.0
e 258 209 22.0
e 261 62 3.0
e 263 245 1.0
e 264 89 5.0
e 264 116 9.0
e 264 94 11.0
e 265 220 6.0
e 265 299 4.0
e 265 305 4.0
e 270 252 22.0
e 270 49 84.0
e 270 56 22.0
e 270 123 65.0
e 270 307 59.0
e 270 314 92.0
e 270 63 3.0
e 270 300 90.0
e 270 255 11.0
e 270 155 99.0
e 270 39 69.0
e 270 43 77.0
e 270 103 10.0
e 270 137 19.0
e 270 225 85.0
e 270 172 17.0
e 270 10 56.0
e 270 17 38.0
e 270 316 3.0
e 270 50 96.0
e 270 1 57.0
e 270 308 46.0
e 270 139 91.0
e 270 259 87.0
e 270 268 6.0
e 270 104 16.0
e 270 280 57.0
e 270 64 40.0
e 270 76 47.0
e 270 135 71.0
e 270 274 2.0
e 270 154 69.0
e 270 165 85.0
e 273 183 21.0
e 273 279 20.0
e 273 184 20.0
e 273 53 5.0
e 273 88 54.0
e 273 230 16.0
e 273 18 9.0
e 273 288 3.0
e 273 21 8.0
e 280 297 19.0
e 280 299 32.0
e 280 208 20.0
e 280 30 61.0
e 280 50 26.0
e 280 119 6.0
e 280 241 28.0
e 280 108 41.0
e 280 252 25.0
e 280 249 14.0
e 280 123 54.0
e 280 142 52.0
e 280 305 52.0
e 280 154 59.0
e 280 301 8.0
e 280 163 59.0
e 280 5 44.0
e 280 294 47.0
e 280 250 88.0
e 280 113 11.0
e 280 76 78.0
e 280 59 21.0
e 280 251 3.0
e 280 263 59.0
e 280 124 25.0
e 280 186 59.0
e 280 218 14.0
e 280 3 27.0
e 280 203 20.0
e 280 132 3.0
e 280 206 39.0
e 280 19 56.0
e 280 245 36.0
e 280 61 71.0
e 283 306 15.0
e 283 78 4.0
e 283 43 41.0
e 283 220 45.0
e 283 140 37.0
e 283 232 38.0
e 283 0 97.0
e 283 318 17.0
e 283 271 65.0
e 283 92 79.0
e 283 69 69.0
e 283 113 39.0
e 283 51 68.0
e 283 111 18.0
e 283 117 24.0
e 283 261 71.0
e 283 194 49.0
e 283 236 73.0
e 283 193 2.0
e 283 5 91.0
e 283 73 84.0
e 283 165 57.0
e 283 60 64.0
e 283 176 69.0
e 283 118 28.0
e 283 146 66.0
e 283 233 17.0
e 283 116 8.0
e 283 133 19.0
e 283 26 62.0
e 283 63 71.0
e 283 122 84.0
e 283 55 23.0
e 283 53 32.0
e 283 138 15.0
e 284 315 7.0
e 284 296 1.0
e 284 100 18.0
e 284 48 7.0
e 284 297 4.0
e 284 116 22.0
e 284 247 6.0
e 284 130 17.0
e 285 228 4.0
e 285 244 3.0
e 285 307 6.0
e 285 12 39.0
e 285 212 7.0
e 285 291 13.0
e 285 45 11.0
e 285 10 18.0
e 288 101 28.0
e 288 217 21.0
e 288 79 86.0
e 288 219 72.0
e 288 236 73.0
e 288 132 70.0
e 288 140 29.0
e 288 224 68.0
e 288 244 59.0
e 288 91 40.0
e 288 163 15.0
e 288 162 5.0
e 288 135 82.0
e 288 183 58.0
e 288 248 81.0
e 288 231 50.0
e 288 199 72.0
e 288 158 86.0
e 288 314 22.0
e 288 165 5.0
e 288 0 54.0
e 288 55 80.0
e 288 260 45.0
e 288 204 25.0
e 288 257 18.0
e 288 1 17.0
e 288 111 37.0
e 288 124 76.0
e 288 258 46.0
e 288 97 41.0
e 288 18 30.0
e 288 66 63.0
e 288 202 74.0
e 288 127 71.0
e 288 264 55.0
e 288 46 45.0
e 289 211 5.0
e 294 45 7.0
e 295 262 5.0
e 295 300 18.0
e 295 125 14.0
e 295 67 20.0
e 295 90 1.0
e 295 47 24.0
e 296 169 11.0
e 302 186 15.0
e 302 205 3.0
e 302 128 18.0
e 302 212 23.0
e 302 4 22.0
e 302 237 23.0
e 302 171 43.0
e 302 183 8.0
e 302 132 13.0
e 303 179 4.0
e 305 37 11.0
e 305 192 11.0
e 307 85 1.0
e 311 13 21.0
e 311 137 39.0
e 311 262 38.0
e 311 59 46.0
e 311 240 33.0
e 311 84 44.0
e 311 73 28.0
e 311 301 3.0
e 311 223 29.0
e 311 227 23.0
e 311 244 9.0
e 311 65 15.0
e 311 144 4.0
e 311 143 42.0
e 311 12 81.0
e 311 93 41.0
e 311 221 36.0
e 311 88 99.0
e 312 76 1.0
e 312 235 2.0
e 312 74 19.0
e 312 142 7.0
e 312 224 21.0
e 312 100 8.0
e 312 31 79.0
e 315 82 11.0
e 315 192 10.0
e 319 251 3.0
e 319 214 5.0
e 319 290 1.0
